
Gurobi 11.0.0 (mac64[arm], Java) logging started Tue May 14 15:17:14 2024

Set parameter Username
Academic license - for non-commercial use only - expires 2025-03-01
Set parameter Method to value 0
Set parameter Presolve to value 0
Set parameter Heuristics to value 0

Gurobi 11.0.0 (mac64[arm], Java) logging started Tue May 14 15:18:15 2024

Set parameter Username
Academic license - for non-commercial use only - expires 2025-03-01
Set parameter Method to value 0
Set parameter Presolve to value 0
Set parameter Heuristics to value 0

Gurobi 11.0.0 (mac64[arm], Java) logging started Tue May 14 15:19:43 2024

Set parameter Username
Academic license - for non-commercial use only - expires 2025-03-01
Set parameter Method to value 0
Set parameter Presolve to value 0
Set parameter Heuristics to value 0

Gurobi 11.0.0 (mac64[arm], Java) logging started Tue May 14 15:20:04 2024

Set parameter Username
Academic license - for non-commercial use only - expires 2025-03-01
Set parameter Method to value 0
Set parameter Presolve to value 0
Set parameter Heuristics to value 0

Gurobi 11.0.0 (mac64[arm], Java) logging started Tue May 14 15:20:12 2024

Set parameter Username
Academic license - for non-commercial use only - expires 2025-03-01
Set parameter Method to value 0
Set parameter Presolve to value 0
Set parameter Heuristics to value 0

Gurobi 11.0.0 (mac64[arm], Java) logging started Tue May 14 15:21:42 2024

Set parameter Username
Academic license - for non-commercial use only - expires 2025-03-01
Set parameter Method to value 0
Set parameter Presolve to value 0
Set parameter Heuristics to value 0

Gurobi 11.0.0 (mac64[arm], Java) logging started Tue May 14 15:22:06 2024

Set parameter Username
Academic license - for non-commercial use only - expires 2025-03-01
Set parameter Method to value 0
Set parameter Presolve to value 0
Set parameter Heuristics to value 0

Gurobi 11.0.0 (mac64[arm], Java) logging started Tue May 14 15:23:38 2024

Set parameter Username
Academic license - for non-commercial use only - expires 2025-03-01
Set parameter Method to value 0
Set parameter Presolve to value 0
Set parameter Heuristics to value 0

Gurobi 11.0.0 (mac64[arm], Java) logging started Tue May 14 15:24:11 2024

Set parameter Username
Academic license - for non-commercial use only - expires 2025-03-01
Set parameter Method to value 0
Set parameter Presolve to value 0
Set parameter Heuristics to value 0

Gurobi 11.0.0 (mac64[arm], Java) logging started Tue May 14 15:27:03 2024

Set parameter Username
Academic license - for non-commercial use only - expires 2025-03-01
Set parameter Method to value 0
Set parameter Presolve to value 0
Set parameter Heuristics to value 0

Gurobi 11.0.0 (mac64[arm], Java) logging started Tue May 14 15:27:34 2024

Set parameter Username
Academic license - for non-commercial use only - expires 2025-03-01
Set parameter Method to value 0
Set parameter Presolve to value 0
Set parameter Heuristics to value 0

Gurobi 11.0.0 (mac64[arm], Java) logging started Tue May 14 15:29:36 2024

Set parameter Username
Academic license - for non-commercial use only - expires 2025-03-01
Set parameter Method to value 0
Set parameter Presolve to value 0
Set parameter Heuristics to value 0

Gurobi 11.0.0 (mac64[arm], Java) logging started Tue May 14 15:30:31 2024

Set parameter Username
Academic license - for non-commercial use only - expires 2025-03-01
Set parameter Method to value 0
Set parameter Presolve to value 0
Set parameter Heuristics to value 0

Gurobi 11.0.0 (mac64[arm], Java) logging started Tue May 14 15:32:04 2024

Set parameter Username
Academic license - for non-commercial use only - expires 2025-03-01
Set parameter Method to value 0
Set parameter Presolve to value 0
Set parameter Heuristics to value 0

Gurobi 11.0.0 (mac64[arm], Java) logging started Tue May 14 15:33:00 2024

Set parameter Username
Academic license - for non-commercial use only - expires 2025-03-01
Set parameter Method to value 0
Set parameter Presolve to value 0
Set parameter Heuristics to value 0

Gurobi 11.0.0 (mac64[arm], Java) logging started Tue May 14 15:35:52 2024

Set parameter Username
Academic license - for non-commercial use only - expires 2025-03-01
Set parameter Method to value 0
Set parameter Presolve to value 0
Set parameter Heuristics to value 0

Gurobi 11.0.0 (mac64[arm], Java) logging started Tue May 14 15:36:08 2024

Set parameter Username
Academic license - for non-commercial use only - expires 2025-03-01
Set parameter Method to value 0
Set parameter Presolve to value 0
Set parameter Heuristics to value 0

Gurobi 11.0.0 (mac64[arm], Java) logging started Tue May 14 15:45:08 2024

Set parameter Username
Academic license - for non-commercial use only - expires 2025-03-01
Set parameter Method to value 0
Set parameter Presolve to value 0
Set parameter Heuristics to value 0

Gurobi 11.0.0 (mac64[arm], Java) logging started Tue May 14 16:04:31 2024

Set parameter Username
Academic license - for non-commercial use only - expires 2025-03-01
Set parameter Method to value 0
Set parameter Presolve to value 0
Set parameter Heuristics to value 0

Gurobi 11.0.0 (mac64[arm], Java) logging started Tue May 14 16:06:24 2024

Set parameter Username
Academic license - for non-commercial use only - expires 2025-03-01
Set parameter Method to value 0
Set parameter Presolve to value 0
Set parameter Heuristics to value 0

Gurobi 11.0.0 (mac64[arm], Java) logging started Tue May 14 16:07:32 2024

Set parameter Username
Academic license - for non-commercial use only - expires 2025-03-01
Set parameter Method to value 0
Set parameter Presolve to value 0
Set parameter Heuristics to value 0

Gurobi 11.0.0 (mac64[arm], Java) logging started Tue May 14 16:07:46 2024

Set parameter Username
Academic license - for non-commercial use only - expires 2025-03-01
Set parameter Method to value 0
Set parameter Presolve to value 0
Set parameter Heuristics to value 0

Gurobi 11.0.0 (mac64[arm], Java) logging started Tue May 14 16:25:09 2024

Set parameter Username
Academic license - for non-commercial use only - expires 2025-03-01
Set parameter Method to value 0
Set parameter Presolve to value 0
Set parameter Heuristics to value 0

Gurobi 11.0.0 (mac64[arm], Java) logging started Tue May 14 16:25:49 2024

Set parameter Username
Academic license - for non-commercial use only - expires 2025-03-01
Set parameter Method to value 0
Set parameter Presolve to value 0
Set parameter Heuristics to value 0

Gurobi 11.0.0 (mac64[arm], Java) logging started Tue May 14 16:26:30 2024

Set parameter Username
Academic license - for non-commercial use only - expires 2025-03-01
Set parameter Method to value 0
Set parameter Presolve to value 0
Set parameter Heuristics to value 0

Gurobi 11.0.0 (mac64[arm], Java) logging started Tue May 14 16:27:32 2024

Set parameter Username
Academic license - for non-commercial use only - expires 2025-03-01
Set parameter Method to value 0
Set parameter Presolve to value 0
Set parameter Heuristics to value 0
Warning: constraint name "Ore minime giornaliere" has a space
